# Fichier généré avec generate.jl, instance avec des très gros montants pour les annonceurs, profit opt 35

5 5
1 1 1 3 2 
3 1 2 3 3 
2 1 1 3 3 
2 3 3 1 3 
1 2 3 1 3 
3
3 5 167
3 4 100
4 3 125
