# Fichier généré avec generate.jl, instance petite et normale ; profit opt : 27.

5 5
2 1 2 3 2 
3 3 2 2 3 
1 1 1 3 2 
3 2 3 1 3 
3 2 1 2 3 
3
1 4 19
5 3 19
4 4 16
