# Fichier généré avec generate.jl, aucun client ne rentre, profit opt : 0

2 2
3 2 
2 2 
5
3 2 8
2 3 1
4 4 1
3 3 9
3 1 5
