# Fichier généré avec generate.jl, une seule ligne, profit opt : 8.

5 1
2 1 2 3 2 
3
3 1 3
2 1 5
2 1 4
