# Fichier généré avec generate.jl, un seul client, profit opt : 6.

5 5
1 2 1 2 2 
3 2 2 3 3 
1 1 3 1 2 
1 1 3 2 3 
1 2 1 3 2 
1
3 5 6
