# Fichier généré avec generate.jl, une seule colonne, profit opt : 8.

1 5
2 
1
2
3
2
3
1 3 3
1 2 5
1 2 4
