# Fichier généré avec generate.jl, un seul client rentre, pas les deux, profit opt : 8

3 3
3 2 1 
2 2 1
1 2 3
2
3 2 8
2 2 1
